g3 1 1 0	# problem unknown
 100 0 1 0 0	# vars, constraints, objectives, general inequalities, equalities
 0 1	# nonlinear constraints, objectives
 0 0	# network constraints: nonlinear, linear
 0 100 0	# nonlinear vars in constraints, objectives, both
 0 0 0 1	# linear network variables; functions; arith, flags
 0 0 0 0 0 	# discrete variables: binary, integer, nonlinear (b,c,o)
 0 100	# nonzeros in Jacobian, obj. gradient
 0 0	# max name lengths: constraints, variables
 0 0 0 0 0	# common exprs: b,c,o,c1,o1
O0 0	#f[None]
o0  #+
o2  #*
n0.5
o5  #^
o0  #+
v11 #x[1]
o0  #+
v22 #x[2]
v33 #x[3]
n2 # numeric constant
o0  #+
o5  #^
o0  #+
v22 #x[2]
o0  #+
v44 #x[4]
v66 #x[6]
n2 # numeric constant
o0  #+
o2  #*
n1.5
o5  #^
o0  #+
v33 #x[3]
o0  #+
v66 #x[6]
v99 #x[9]
n2 # numeric constant
o0  #+
o2  #*
n2.0
o5  #^
o0  #+
v44 #x[4]
o0  #+
v88 #x[8]
v3 #x[12]
n2 # numeric constant
o0  #+
o2  #*
n2.5
o5  #^
o0  #+
v55 #x[5]
o0  #+
v1 #x[10]
v6 #x[15]
n2 # numeric constant
o0  #+
o2  #*
n3.0
o5  #^
o0  #+
v66 #x[6]
o0  #+
v3 #x[12]
v9 #x[18]
n2 # numeric constant
o0  #+
o2  #*
n3.5
o5  #^
o0  #+
v77 #x[7]
o0  #+
v5 #x[14]
v13 #x[21]
n2 # numeric constant
o0  #+
o2  #*
n4.0
o5  #^
o0  #+
v88 #x[8]
o0  #+
v7 #x[16]
v16 #x[24]
n2 # numeric constant
o0  #+
o2  #*
n4.5
o5  #^
o0  #+
v99 #x[9]
o0  #+
v9 #x[18]
v19 #x[27]
n2 # numeric constant
o0  #+
o2  #*
n5.0
o5  #^
o0  #+
v1 #x[10]
o0  #+
v12 #x[20]
v23 #x[30]
n2 # numeric constant
o0  #+
o2  #*
n5.5
o5  #^
o0  #+
v2 #x[11]
o0  #+
v14 #x[22]
v26 #x[33]
n2 # numeric constant
o0  #+
o2  #*
n6.0
o5  #^
o0  #+
v3 #x[12]
o0  #+
v16 #x[24]
v29 #x[36]
n2 # numeric constant
o0  #+
o2  #*
n6.5
o5  #^
o0  #+
v4 #x[13]
o0  #+
v18 #x[26]
v32 #x[39]
n2 # numeric constant
o0  #+
o2  #*
n7.0
o5  #^
o0  #+
v5 #x[14]
o0  #+
v20 #x[28]
v36 #x[42]
n2 # numeric constant
o0  #+
o2  #*
n7.5
o5  #^
o0  #+
v6 #x[15]
o0  #+
v23 #x[30]
v39 #x[45]
n2 # numeric constant
o0  #+
o2  #*
n8.0
o5  #^
o0  #+
v7 #x[16]
o0  #+
v25 #x[32]
v42 #x[48]
n2 # numeric constant
o0  #+
o2  #*
n8.5
o5  #^
o0  #+
v8 #x[17]
o0  #+
v27 #x[34]
v46 #x[51]
n2 # numeric constant
o0  #+
o2  #*
n9.0
o5  #^
o0  #+
v9 #x[18]
o0  #+
v29 #x[36]
v49 #x[54]
n2 # numeric constant
o0  #+
o2  #*
n9.5
o5  #^
o0  #+
v10 #x[19]
o0  #+
v31 #x[38]
v52 #x[57]
n2 # numeric constant
o0  #+
o2  #*
n10.0
o5  #^
o0  #+
v12 #x[20]
o0  #+
v34 #x[40]
v56 #x[60]
n2 # numeric constant
o0  #+
o2  #*
n10.5
o5  #^
o0  #+
v13 #x[21]
o0  #+
v36 #x[42]
v59 #x[63]
n2 # numeric constant
o0  #+
o2  #*
n11.0
o5  #^
o0  #+
v14 #x[22]
o0  #+
v38 #x[44]
v62 #x[66]
n2 # numeric constant
o0  #+
o2  #*
n11.5
o5  #^
o0  #+
v15 #x[23]
o0  #+
v40 #x[46]
v65 #x[69]
n2 # numeric constant
o0  #+
o2  #*
n12.0
o5  #^
o0  #+
v16 #x[24]
o0  #+
v42 #x[48]
v69 #x[72]
n2 # numeric constant
o0  #+
o2  #*
n12.5
o5  #^
o0  #+
v17 #x[25]
o0  #+
v45 #x[50]
v72 #x[75]
n2 # numeric constant
o0  #+
o2  #*
n-13.0
o5  #^
o0  #+
v18 #x[26]
o0  #+
v47 #x[52]
v75 #x[78]
n2 # numeric constant
o0  #+
o2  #*
n-13.5
o5  #^
o0  #+
v19 #x[27]
o0  #+
v49 #x[54]
v79 #x[81]
n2 # numeric constant
o0  #+
o2  #*
n-14.0
o5  #^
o0  #+
v20 #x[28]
o0  #+
v51 #x[56]
v82 #x[84]
n2 # numeric constant
o0  #+
o2  #*
n-14.5
o5  #^
o0  #+
v21 #x[29]
o0  #+
v53 #x[58]
v85 #x[87]
n2 # numeric constant
o0  #+
o2  #*
n-15.0
o5  #^
o0  #+
v23 #x[30]
o0  #+
v56 #x[60]
v89 #x[90]
n2 # numeric constant
o0  #+
o2  #*
n-15.5
o5  #^
o0  #+
v24 #x[31]
o0  #+
v58 #x[62]
v92 #x[93]
n2 # numeric constant
o0  #+
o2  #*
n-16.0
o5  #^
o0  #+
v25 #x[32]
o0  #+
v60 #x[64]
v95 #x[96]
n2 # numeric constant
o0  #+
o2  #*
n-16.5
o5  #^
o0  #+
v26 #x[33]
o0  #+
v62 #x[66]
v98 #x[99]
n2 # numeric constant
o0  #+
o2  #*
n-17.0
o5  #^
o0  #+
v27 #x[34]
o0  #+
v64 #x[68]
v22 #x[2]
n2 # numeric constant
o0  #+
o2  #*
n-17.5
o5  #^
o0  #+
v28 #x[35]
o0  #+
v67 #x[70]
v55 #x[5]
n2 # numeric constant
o0  #+
o2  #*
n-18.0
o5  #^
o0  #+
v29 #x[36]
o0  #+
v69 #x[72]
v88 #x[8]
n2 # numeric constant
o0  #+
o2  #*
n-18.5
o5  #^
o0  #+
v30 #x[37]
o0  #+
v71 #x[74]
v2 #x[11]
n2 # numeric constant
o0  #+
o2  #*
n-19.0
o5  #^
o0  #+
v31 #x[38]
o0  #+
v73 #x[76]
v5 #x[14]
n2 # numeric constant
o0  #+
o2  #*
n-19.5
o5  #^
o0  #+
v32 #x[39]
o0  #+
v75 #x[78]
v8 #x[17]
n2 # numeric constant
o0  #+
o2  #*
n-20.0
o5  #^
o0  #+
v34 #x[40]
o0  #+
v78 #x[80]
v12 #x[20]
n2 # numeric constant
o0  #+
o2  #*
n-20.5
o5  #^
o0  #+
v35 #x[41]
o0  #+
v80 #x[82]
v15 #x[23]
n2 # numeric constant
o0  #+
o2  #*
n-21.0
o5  #^
o0  #+
v36 #x[42]
o0  #+
v82 #x[84]
v18 #x[26]
n2 # numeric constant
o0  #+
o2  #*
n-21.5
o5  #^
o0  #+
v37 #x[43]
o0  #+
v84 #x[86]
v21 #x[29]
n2 # numeric constant
o0  #+
o2  #*
n-22.0
o5  #^
o0  #+
v38 #x[44]
o0  #+
v86 #x[88]
v25 #x[32]
n2 # numeric constant
o0  #+
o2  #*
n-22.5
o5  #^
o0  #+
v39 #x[45]
o0  #+
v89 #x[90]
v28 #x[35]
n2 # numeric constant
o0  #+
o2  #*
n-23.0
o5  #^
o0  #+
v40 #x[46]
o0  #+
v91 #x[92]
v31 #x[38]
n2 # numeric constant
o0  #+
o2  #*
n-23.5
o5  #^
o0  #+
v41 #x[47]
o0  #+
v93 #x[94]
v35 #x[41]
n2 # numeric constant
o0  #+
o2  #*
n-24.0
o5  #^
o0  #+
v42 #x[48]
o0  #+
v95 #x[96]
v38 #x[44]
n2 # numeric constant
o0  #+
o2  #*
n-24.5
o5  #^
o0  #+
v43 #x[49]
o0  #+
v97 #x[98]
v41 #x[47]
n2 # numeric constant
o0  #+
o2  #*
n-25.0
o5  #^
o0  #+
v45 #x[50]
o0  #+
v0 #x[100]
v45 #x[50]
n2 # numeric constant
o0  #+
o2  #*
n-25.5
o5  #^
o0  #+
v46 #x[51]
o0  #+
v22 #x[2]
v48 #x[53]
n2 # numeric constant
o0  #+
o2  #*
n-26.0
o5  #^
o0  #+
v47 #x[52]
o0  #+
v44 #x[4]
v51 #x[56]
n2 # numeric constant
o0  #+
o2  #*
n-26.5
o5  #^
o0  #+
v48 #x[53]
o0  #+
v66 #x[6]
v54 #x[59]
n2 # numeric constant
o0  #+
o2  #*
n-27.0
o5  #^
o0  #+
v49 #x[54]
o0  #+
v88 #x[8]
v58 #x[62]
n2 # numeric constant
o0  #+
o2  #*
n-27.5
o5  #^
o0  #+
v50 #x[55]
o0  #+
v1 #x[10]
v61 #x[65]
n2 # numeric constant
o0  #+
o2  #*
n-28.0
o5  #^
o0  #+
v51 #x[56]
o0  #+
v3 #x[12]
v64 #x[68]
n2 # numeric constant
o0  #+
o2  #*
n-28.5
o5  #^
o0  #+
v52 #x[57]
o0  #+
v5 #x[14]
v68 #x[71]
n2 # numeric constant
o0  #+
o2  #*
n-29.0
o5  #^
o0  #+
v53 #x[58]
o0  #+
v7 #x[16]
v71 #x[74]
n2 # numeric constant
o0  #+
o2  #*
n-29.5
o5  #^
o0  #+
v54 #x[59]
o0  #+
v9 #x[18]
v74 #x[77]
n2 # numeric constant
o0  #+
o2  #*
n-30.0
o5  #^
o0  #+
v56 #x[60]
o0  #+
v12 #x[20]
v78 #x[80]
n2 # numeric constant
o0  #+
o2  #*
n-30.5
o5  #^
o0  #+
v57 #x[61]
o0  #+
v14 #x[22]
v81 #x[83]
n2 # numeric constant
o0  #+
o2  #*
n-31.0
o5  #^
o0  #+
v58 #x[62]
o0  #+
v16 #x[24]
v84 #x[86]
n2 # numeric constant
o0  #+
o2  #*
n-31.5
o5  #^
o0  #+
v59 #x[63]
o0  #+
v18 #x[26]
v87 #x[89]
n2 # numeric constant
o0  #+
o2  #*
n-32.0
o5  #^
o0  #+
v60 #x[64]
o0  #+
v20 #x[28]
v91 #x[92]
n2 # numeric constant
o0  #+
o2  #*
n-32.5
o5  #^
o0  #+
v61 #x[65]
o0  #+
v23 #x[30]
v94 #x[95]
n2 # numeric constant
o0  #+
o2  #*
n-33.0
o5  #^
o0  #+
v62 #x[66]
o0  #+
v25 #x[32]
v97 #x[98]
n2 # numeric constant
o0  #+
o2  #*
n-33.5
o5  #^
o0  #+
v63 #x[67]
o0  #+
v27 #x[34]
v11 #x[1]
n2 # numeric constant
o0  #+
o2  #*
n-34.0
o5  #^
o0  #+
v64 #x[68]
o0  #+
v29 #x[36]
v44 #x[4]
n2 # numeric constant
o0  #+
o2  #*
n-34.5
o5  #^
o0  #+
v65 #x[69]
o0  #+
v31 #x[38]
v77 #x[7]
n2 # numeric constant
o0  #+
o2  #*
n-35.0
o5  #^
o0  #+
v67 #x[70]
o0  #+
v34 #x[40]
v1 #x[10]
n2 # numeric constant
o0  #+
o2  #*
n-35.5
o5  #^
o0  #+
v68 #x[71]
o0  #+
v36 #x[42]
v4 #x[13]
n2 # numeric constant
o0  #+
o2  #*
n-36.0
o5  #^
o0  #+
v69 #x[72]
o0  #+
v38 #x[44]
v7 #x[16]
n2 # numeric constant
o0  #+
o2  #*
n-36.5
o5  #^
o0  #+
v70 #x[73]
o0  #+
v40 #x[46]
v10 #x[19]
n2 # numeric constant
o0  #+
o2  #*
n-37.0
o5  #^
o0  #+
v71 #x[74]
o0  #+
v42 #x[48]
v14 #x[22]
n2 # numeric constant
o0  #+
o2  #*
n-37.5
o5  #^
o0  #+
v72 #x[75]
o0  #+
v45 #x[50]
v17 #x[25]
n2 # numeric constant
o0  #+
o2  #*
n-38.0
o5  #^
o0  #+
v73 #x[76]
o0  #+
v47 #x[52]
v20 #x[28]
n2 # numeric constant
o0  #+
o2  #*
n-38.5
o5  #^
o0  #+
v74 #x[77]
o0  #+
v49 #x[54]
v24 #x[31]
n2 # numeric constant
o0  #+
o2  #*
n-39.0
o5  #^
o0  #+
v75 #x[78]
o0  #+
v51 #x[56]
v27 #x[34]
n2 # numeric constant
o0  #+
o2  #*
n-39.5
o5  #^
o0  #+
v76 #x[79]
o0  #+
v53 #x[58]
v30 #x[37]
n2 # numeric constant
o0  #+
o2  #*
n-40.0
o5  #^
o0  #+
v78 #x[80]
o0  #+
v56 #x[60]
v34 #x[40]
n2 # numeric constant
o0  #+
o2  #*
n-40.5
o5  #^
o0  #+
v79 #x[81]
o0  #+
v58 #x[62]
v37 #x[43]
n2 # numeric constant
o0  #+
o2  #*
n-41.0
o5  #^
o0  #+
v80 #x[82]
o0  #+
v60 #x[64]
v40 #x[46]
n2 # numeric constant
o0  #+
o2  #*
n-41.5
o5  #^
o0  #+
v81 #x[83]
o0  #+
v62 #x[66]
v43 #x[49]
n2 # numeric constant
o0  #+
o2  #*
n-42.0
o5  #^
o0  #+
v82 #x[84]
o0  #+
v64 #x[68]
v47 #x[52]
n2 # numeric constant
o0  #+
o2  #*
n-42.5
o5  #^
o0  #+
v83 #x[85]
o0  #+
v67 #x[70]
v50 #x[55]
n2 # numeric constant
o0  #+
o2  #*
n-43.0
o5  #^
o0  #+
v84 #x[86]
o0  #+
v69 #x[72]
v53 #x[58]
n2 # numeric constant
o0  #+
o2  #*
n-43.5
o5  #^
o0  #+
v85 #x[87]
o0  #+
v71 #x[74]
v57 #x[61]
n2 # numeric constant
o0  #+
o2  #*
n-44.0
o5  #^
o0  #+
v86 #x[88]
o0  #+
v73 #x[76]
v60 #x[64]
n2 # numeric constant
o0  #+
o2  #*
n-44.5
o5  #^
o0  #+
v87 #x[89]
o0  #+
v75 #x[78]
v63 #x[67]
n2 # numeric constant
o0  #+
o2  #*
n-45.0
o5  #^
o0  #+
v89 #x[90]
o0  #+
v78 #x[80]
v67 #x[70]
n2 # numeric constant
o0  #+
o2  #*
n-45.5
o5  #^
o0  #+
v90 #x[91]
o0  #+
v80 #x[82]
v70 #x[73]
n2 # numeric constant
o0  #+
o2  #*
n-46.0
o5  #^
o0  #+
v91 #x[92]
o0  #+
v82 #x[84]
v73 #x[76]
n2 # numeric constant
o0  #+
o2  #*
n-46.5
o5  #^
o0  #+
v92 #x[93]
o0  #+
v84 #x[86]
v76 #x[79]
n2 # numeric constant
o0  #+
o2  #*
n-47.0
o5  #^
o0  #+
v93 #x[94]
o0  #+
v86 #x[88]
v80 #x[82]
n2 # numeric constant
o0  #+
o2  #*
n-47.5
o5  #^
o0  #+
v94 #x[95]
o0  #+
v89 #x[90]
v83 #x[85]
n2 # numeric constant
o0  #+
o2  #*
n-48.0
o5  #^
o0  #+
v95 #x[96]
o0  #+
v91 #x[92]
v86 #x[88]
n2 # numeric constant
o0  #+
o2  #*
n-48.5
o5  #^
o0  #+
v96 #x[97]
o0  #+
v93 #x[94]
v90 #x[91]
n2 # numeric constant
o0  #+
o2  #*
n-49.0
o5  #^
o0  #+
v97 #x[98]
o0  #+
v95 #x[96]
v93 #x[94]
n2 # numeric constant
o0  #+
o2  #*
n-49.5
o5  #^
o0  #+
v98 #x[99]
o0  #+
v97 #x[98]
v96 #x[97]
n2 # numeric constant
o2  #*
n-50.0
o5  #^
o0  #+
v0 #x[100]
o0  #+
v0 #x[100]
v0 #x[100]
n2 # numeric constant
x100
0 0.5 # x[100] initial
1 0.5 # x[10] initial
2 0.5 # x[11] initial
3 0.5 # x[12] initial
4 0.5 # x[13] initial
5 0.5 # x[14] initial
6 0.5 # x[15] initial
7 0.5 # x[16] initial
8 0.5 # x[17] initial
9 0.5 # x[18] initial
10 0.5 # x[19] initial
11 0.5 # x[1] initial
12 0.5 # x[20] initial
13 0.5 # x[21] initial
14 0.5 # x[22] initial
15 0.5 # x[23] initial
16 0.5 # x[24] initial
17 0.5 # x[25] initial
18 0.5 # x[26] initial
19 0.5 # x[27] initial
20 0.5 # x[28] initial
21 0.5 # x[29] initial
22 0.5 # x[2] initial
23 0.5 # x[30] initial
24 0.5 # x[31] initial
25 0.5 # x[32] initial
26 0.5 # x[33] initial
27 0.5 # x[34] initial
28 0.5 # x[35] initial
29 0.5 # x[36] initial
30 0.5 # x[37] initial
31 0.5 # x[38] initial
32 0.5 # x[39] initial
33 0.5 # x[3] initial
34 0.5 # x[40] initial
35 0.5 # x[41] initial
36 0.5 # x[42] initial
37 0.5 # x[43] initial
38 0.5 # x[44] initial
39 0.5 # x[45] initial
40 0.5 # x[46] initial
41 0.5 # x[47] initial
42 0.5 # x[48] initial
43 0.5 # x[49] initial
44 0.5 # x[4] initial
45 0.5 # x[50] initial
46 0.5 # x[51] initial
47 0.5 # x[52] initial
48 0.5 # x[53] initial
49 0.5 # x[54] initial
50 0.5 # x[55] initial
51 0.5 # x[56] initial
52 0.5 # x[57] initial
53 0.5 # x[58] initial
54 0.5 # x[59] initial
55 0.5 # x[5] initial
56 0.5 # x[60] initial
57 0.5 # x[61] initial
58 0.5 # x[62] initial
59 0.5 # x[63] initial
60 0.5 # x[64] initial
61 0.5 # x[65] initial
62 0.5 # x[66] initial
63 0.5 # x[67] initial
64 0.5 # x[68] initial
65 0.5 # x[69] initial
66 0.5 # x[6] initial
67 0.5 # x[70] initial
68 0.5 # x[71] initial
69 0.5 # x[72] initial
70 0.5 # x[73] initial
71 0.5 # x[74] initial
72 0.5 # x[75] initial
73 0.5 # x[76] initial
74 0.5 # x[77] initial
75 0.5 # x[78] initial
76 0.5 # x[79] initial
77 0.5 # x[7] initial
78 0.5 # x[80] initial
79 0.5 # x[81] initial
80 0.5 # x[82] initial
81 0.5 # x[83] initial
82 0.5 # x[84] initial
83 0.5 # x[85] initial
84 0.5 # x[86] initial
85 0.5 # x[87] initial
86 0.5 # x[88] initial
87 0.5 # x[89] initial
88 0.5 # x[8] initial
89 0.5 # x[90] initial
90 0.5 # x[91] initial
91 0.5 # x[92] initial
92 0.5 # x[93] initial
93 0.5 # x[94] initial
94 0.5 # x[95] initial
95 0.5 # x[96] initial
96 0.5 # x[97] initial
97 0.5 # x[98] initial
98 0.5 # x[99] initial
99 0.5 # x[9] initial
r
b
0 0.1 10.0  # v0  x[100]
0 0.1 10.0  # v1  x[10]
0 0.1 10.0  # v2  x[11]
0 0.1 10.0  # v3  x[12]
0 0.1 10.0  # v4  x[13]
0 0.1 10.0  # v5  x[14]
0 0.1 10.0  # v6  x[15]
0 0.1 10.0  # v7  x[16]
0 0.1 10.0  # v8  x[17]
0 0.1 10.0  # v9  x[18]
0 0.1 10.0  # v10  x[19]
0 0.1 10.0  # v11  x[1]
0 0.1 10.0  # v12  x[20]
0 0.1 10.0  # v13  x[21]
0 0.1 10.0  # v14  x[22]
0 0.1 10.0  # v15  x[23]
0 0.1 10.0  # v16  x[24]
0 0.1 10.0  # v17  x[25]
0 0.1 10.0  # v18  x[26]
0 0.1 10.0  # v19  x[27]
0 0.1 10.0  # v20  x[28]
0 0.1 10.0  # v21  x[29]
0 0.1 10.0  # v22  x[2]
0 0.1 10.0  # v23  x[30]
0 0.1 10.0  # v24  x[31]
0 0.1 10.0  # v25  x[32]
0 0.1 10.0  # v26  x[33]
0 0.1 10.0  # v27  x[34]
0 0.1 10.0  # v28  x[35]
0 0.1 10.0  # v29  x[36]
0 0.1 10.0  # v30  x[37]
0 0.1 10.0  # v31  x[38]
0 0.1 10.0  # v32  x[39]
0 0.1 10.0  # v33  x[3]
0 0.1 10.0  # v34  x[40]
0 0.1 10.0  # v35  x[41]
0 0.1 10.0  # v36  x[42]
0 0.1 10.0  # v37  x[43]
0 0.1 10.0  # v38  x[44]
0 0.1 10.0  # v39  x[45]
0 0.1 10.0  # v40  x[46]
0 0.1 10.0  # v41  x[47]
0 0.1 10.0  # v42  x[48]
0 0.1 10.0  # v43  x[49]
0 0.1 10.0  # v44  x[4]
0 0.1 10.0  # v45  x[50]
0 0.1 10.0  # v46  x[51]
0 0.1 10.0  # v47  x[52]
0 0.1 10.0  # v48  x[53]
0 0.1 10.0  # v49  x[54]
0 0.1 10.0  # v50  x[55]
0 0.1 10.0  # v51  x[56]
0 0.1 10.0  # v52  x[57]
0 0.1 10.0  # v53  x[58]
0 0.1 10.0  # v54  x[59]
0 0.1 10.0  # v55  x[5]
0 0.1 10.0  # v56  x[60]
0 0.1 10.0  # v57  x[61]
0 0.1 10.0  # v58  x[62]
0 0.1 10.0  # v59  x[63]
0 0.1 10.0  # v60  x[64]
0 0.1 10.0  # v61  x[65]
0 0.1 10.0  # v62  x[66]
0 0.1 10.0  # v63  x[67]
0 0.1 10.0  # v64  x[68]
0 0.1 10.0  # v65  x[69]
0 0.1 10.0  # v66  x[6]
0 0.1 10.0  # v67  x[70]
0 0.1 10.0  # v68  x[71]
0 0.1 10.0  # v69  x[72]
0 0.1 10.0  # v70  x[73]
0 0.1 10.0  # v71  x[74]
0 0.1 10.0  # v72  x[75]
0 0.1 10.0  # v73  x[76]
0 0.1 10.0  # v74  x[77]
0 0.1 10.0  # v75  x[78]
0 0.1 10.0  # v76  x[79]
0 0.1 10.0  # v77  x[7]
0 0.1 10.0  # v78  x[80]
0 0.1 10.0  # v79  x[81]
0 0.1 10.0  # v80  x[82]
0 0.1 10.0  # v81  x[83]
0 0.1 10.0  # v82  x[84]
0 0.1 10.0  # v83  x[85]
0 0.1 10.0  # v84  x[86]
0 0.1 10.0  # v85  x[87]
0 0.1 10.0  # v86  x[88]
0 0.1 10.0  # v87  x[89]
0 0.1 10.0  # v88  x[8]
0 0.1 10.0  # v89  x[90]
0 0.1 10.0  # v90  x[91]
0 0.1 10.0  # v91  x[92]
0 0.1 10.0  # v92  x[93]
0 0.1 10.0  # v93  x[94]
0 0.1 10.0  # v94  x[95]
0 0.1 10.0  # v95  x[96]
0 0.1 10.0  # v96  x[97]
0 0.1 10.0  # v97  x[98]
0 0.1 10.0  # v98  x[99]
0 0.1 10.0  # v99  x[9]
k99
0
0
0
0
0
0
0
0
0
0
0
0
0
0
0
0
0
0
0
0
0
0
0
0
0
0
0
0
0
0
0
0
0
0
0
0
0
0
0
0
0
0
0
0
0
0
0
0
0
0
0
0
0
0
0
0
0
0
0
0
0
0
0
0
0
0
0
0
0
0
0
0
0
0
0
0
0
0
0
0
0
0
0
0
0
0
0
0
0
0
0
0
0
0
0
0
0
0
0
G0 100
0   0
1   0
2   0
3   0
4   0
5   0
6   0
7   0
8   0
9   0
10   0
11   0
12   0
13   0
14   0
15   0
16   0
17   0
18   0
19   0
20   0
21   0
22   0
23   0
24   0
25   0
26   0
27   0
28   0
29   0
30   0
31   0
32   0
33   0
34   0
35   0
36   0
37   0
38   0
39   0
40   0
41   0
42   0
43   0
44   0
45   0
46   0
47   0
48   0
49   0
50   0
51   0
52   0
53   0
54   0
55   0
56   0
57   0
58   0
59   0
60   0
61   0
62   0
63   0
64   0
65   0
66   0
67   0
68   0
69   0
70   0
71   0
72   0
73   0
74   0
75   0
76   0
77   0
78   0
79   0
80   0
81   0
82   0
83   0
84   0
85   0
86   0
87   0
88   0
89   0
90   0
91   0
92   0
93   0
94   0
95   0
96   0
97   0
98   0
99   0
